56
3 66 51 32 
3 14 47 55 
2 34 103 
3 80 15 89 
3 65 54 24 
2 75 91 
2 21 19 
3 29 96 26 
2 31 27 
3 3 120 77 
3 6 92 30 
1 79 
3 118 116 50 
3 41 39 98 
2 52 70 
3 53 119 63 
2 16 22 
2 64 87 
3 68 40 114 
3 101 56 93 
2 109 104 
3 108 117 71 
2 49 13 
3 67 102 62 
2 18 85 
1 9 
1 82 
2 38 57 
3 7 2 84 
1 37 
2 94 28 
2 83 12 
1 81 
3 105 60 36 
3 8 17 44 
2 72 99 
3 48 11 4 
1 25 
2 59 74 
2 110 97 
2 58 107 
1 112 
2 113 73 
2 111 1 
3 90 20 88 
1 43 
2 69 45 
2 35 5 
1 78 
2 86 76 
2 42 106 
1 100 
2 33 46 
2 95 23 
1 115 
2 61 10 
